
Gurobi 11.0.3 (linux64) logging started Sat Nov 23 07:42:47 2024

Set parameter LogFile to value "/home/yihong/Coding/OR_SUC/SUC_results_bigM100000_thread4/case24_ieee_rts_theta0.5_epsilon0.05_gurobi_seed940000_num_gen100_N_WDR50_load_scaling_factor1_exact_T24quadra_cost.txt"
Set parameter TimeLimit to value 3600
Gurobi Optimizer version 11.0.3 build v11.0.3rc0 (linux64 - "Ubuntu 20.04.6 LTS")

CPU model: AMD EPYC 7532 32-Core Processor, instruction set [SSE2|AVX|AVX2]
Thread count: 64 physical cores, 128 logical processors, using up to 4 threads

Optimize a model with 51943 rows, 29861 columns and 712638 nonzeros
Model fingerprint: 0x215a6424
Model has 2400 quadratic constraints
Variable types: 27411 continuous, 2450 integer (2450 binary)
Coefficient statistics:
  Matrix range     [3e-04, 1e+05]
  QMatrix range    [2e-03, 8e-03]
  QLMatrix range   [3e-01, 6e+01]
  Objective range  [1e+00, 1e+00]
  Bounds range     [1e+00, 1e+00]
  RHS range        [1e+00, 1e+05]
Presolve removed 42057 rows and 12911 columns
Presolve time: 0.25s
Presolved: 9886 rows, 16950 columns, 63034 nonzeros
Presolved model has 2400 quadratic constraint(s)
Variable types: 14508 continuous, 2442 integer (2442 binary)

Root relaxation: objective 4.356391e+04, 8027 iterations, 0.21 seconds (0.29 work units)

    Nodes    |    Current Node    |     Objective Bounds      |     Work
 Expl Unexpl |  Obj  Depth IntInf | Incumbent    BestBd   Gap | It/Node Time

     0     0 43563.9073    0   28          - 43563.9073      -     -    0s
     0     0 353388.573    0  693          - 353388.573      -     -    1s
     0     0 403688.231    0  650          - 403688.231      -     -    1s
     0     0 624098.439    0  630          - 624098.439      -     -    1s
     0     0 624145.366    0  497          - 624145.366      -     -    1s
     0     0 624557.081    0  450          - 624557.081      -     -    1s
     0     0 624558.429    0  450          - 624558.429      -     -    1s
     0     0 624864.822    0  451          - 624864.822      -     -    1s
     0     0 624865.066    0  451          - 624865.066      -     -    1s
     0     2 624865.066    0  451          - 624865.066      -     -    2s
H  526   289                    625636.16528 624891.748  0.12%  38.2    4s
*  526   289             201    625636.16528 624891.748  0.12%  38.2    4s
   608   202 625524.036   20  451 625636.165 624938.204  0.11%  39.2    6s

Explored 609 nodes (46676 simplex iterations) in 7.60 seconds (9.27 work units)
Thread count was 4 (of 128 available processors)

Solution count 2: 625636 625636 

Optimal solution found (tolerance 1.00e-03)
Warning: max constraint violation (5.7210e-07) exceeds tolerance
Best objective 6.256361652766e+05, best bound 6.252997619981e+05, gap 0.0538%
